c uprop, v00.0, 
c reading from data/prog95.c.cnf
c done reading: 0.002491
p cnf 109 425
-59 -78 0
-62 -78 0
59 62 78 0
59 62 -83 0
-59 -62 -83 0
-59 62 83 0
59 -62 83 0
-66 78 0
-66 -68 0
66 68 -78 0
68 -73 -78 0
-68 -73 78 0
68 73 78 0
-68 73 -78 0
66 -77 0
-77 -79 0
-66 77 79 0
-66 79 -81 0
66 -79 -81 0
66 79 81 0
-66 -79 81 0
77 -82 0
-82 -85 0
-77 82 85 0
-61 -77 85 0
-61 77 -85 0
61 77 85 0
61 -77 -85 0
-57 82 0
-57 -64 0
57 64 -82 0
-56 64 -82 0
-56 -64 82 0
56 64 82 0
56 -64 -82 0
-55 57 0
-55 -71 0
55 -57 71 0
-54 -57 71 0
-54 57 -71 0
54 57 71 0
54 -57 -71 0
-53 55 0
-53 -75 0
53 -55 75 0
-52 -55 75 0
-52 55 -75 0
52 55 75 0
52 -55 -75 0
-51 62 0
-51 59 0
51 -59 -62 0
-50 -59 -62 0
-50 59 62 0
50 59 -62 0
50 -59 62 0
49 -62 -68 0
49 -51 -68 0
49 -51 -62 0
-49 62 68 0
-49 51 68 0
-49 51 62 0
-48 -49 68 0
-48 -49 62 0
-48 -49 51 0
48 49 -68 0
48 49 -62 0
48 49 -51 0
48 -51 -62 -68 0
-48 51 62 68 0
47 -68 -79 0
47 -49 -79 0
47 -49 -68 0
-47 68 79 0
-47 49 79 0
-47 49 68 0
-46 -47 79 0
-46 -47 68 0
-46 -47 49 0
46 47 -79 0
46 47 -68 0
46 47 -49 0
46 -49 -68 -79 0
-46 49 68 79 0
45 -79 -85 0
45 -47 -85 0
45 -47 -79 0
-45 79 85 0
-45 47 85 0
-45 47 79 0
-45 85 -87 0
-45 79 -87 0
-45 47 -87 0
45 -85 87 0
45 -79 87 0
45 -47 87 0
-47 -79 -85 87 0
47 79 85 -87 0
-64 -85 88 0
-45 -64 88 0
-45 -85 88 0
64 85 -88 0
45 64 -88 0
45 85 -88 0
64 -88 -89 0
85 -88 -89 0
45 -88 -89 0
-64 88 89 0
-85 88 89 0
-45 88 89 0
-45 -64 -85 89 0
45 64 85 -89 0
-64 -71 90 0
-71 -88 90 0
-64 -88 90 0
64 71 -90 0
71 88 -90 0
64 88 -90 0
71 -90 -91 0
64 -90 -91 0
88 -90 -91 0
-71 90 91 0
-64 90 91 0
-88 90 91 0
-64 -71 -88 91 0
64 71 88 -91 0
-71 -75 92 0
-75 -90 92 0
-71 -90 92 0
71 75 -92 0
75 90 -92 0
71 90 -92 0
-60 75 -92 0
-60 71 -92 0
-60 90 -92 0
60 -75 92 0
60 -71 92 0
60 -90 92 0
60 -71 -75 -90 0
-60 71 75 90 0
-63 75 0
-63 92 0
63 -75 -92 0
-69 -75 -92 0
-69 75 92 0
69 -75 92 0
69 75 -92 0
-59 -80 0
-50 -80 0
50 59 80 0
50 59 -86 0
-50 -59 -86 0
50 -59 86 0
-50 59 86 0
-65 80 0
-48 -65 0
48 65 -80 0
48 -72 -80 0
-48 -72 80 0
48 72 80 0
-48 72 -80 0
65 -76 0
-46 -76 0
46 -65 76 0
46 -65 -93 0
-46 65 -93 0
46 65 93 0
-46 -65 93 0
76 -94 0
-87 -94 0
-76 87 94 0
-76 87 -97 0
76 -87 -97 0
76 87 97 0
-76 -87 97 0
94 -99 0
-89 -99 0
89 -94 99 0
89 -94 -100 0
-89 94 -100 0
89 94 100 0
-89 -94 100 0
99 -101 0
-91 -101 0
91 -99 101 0
91 -99 -102 0
-91 99 -102 0
91 99 102 0
-91 -99 102 0
101 -103 0
-60 -103 0
60 -101 103 0
60 -101 -104 0
-60 101 -104 0
60 101 104 0
-60 -101 104 0
103 -105 0
-69 -105 0
69 -103 105 0
69 -103 -106 0
-69 103 -106 0
69 103 106 0
-69 -103 106 0
105 -107 0
-63 -107 0
63 -105 107 0
63 -105 -108 0
-63 105 -108 0
63 105 108 0
-63 -105 108 0
-96 -109 0
96 109 0
-44 -98 0
44 98 0
-41 -43 0
41 43 0
-39 -40 0
39 40 0
-36 -38 0
36 38 0
-34 -35 0
34 35 0
-31 -33 0
31 33 0
-30 40 0
30 -40 0
-29 -40 0
29 40 0
28 -38 -96 0
28 -30 -38 0
28 -30 -96 0
-28 38 96 0
-28 30 38 0
-28 30 96 0
-27 -28 38 0
-27 -28 96 0
-27 -28 30 0
27 28 -38 0
27 28 -96 0
27 28 -30 0
27 -30 -38 -96 0
-27 30 38 96 0
26 -35 -98 0
26 -28 -35 0
26 -28 -98 0
-26 35 98 0
-26 28 35 0
-26 28 98 0
-25 -26 35 0
-25 -26 98 0
-25 -26 28 0
25 26 -35 0
25 26 -98 0
25 26 -28 0
25 -28 -35 -98 0
-25 28 35 98 0
24 -33 -43 0
24 -26 -33 0
24 -26 -43 0
-24 33 43 0
-24 26 33 0
-24 26 43 0
-23 -24 33 0
-23 -24 43 0
-23 -24 26 0
23 24 -33 0
23 24 -43 0
23 24 -26 0
23 -26 -33 -43 0
-23 26 33 43 0
-22 40 0
-22 24 0
22 -24 -40 0
-21 -24 -40 0
-21 24 40 0
21 24 -40 0
21 -24 40 0
-20 38 0
-20 22 0
20 -22 -38 0
-19 -22 -38 0
-19 22 38 0
19 22 -38 0
19 -22 38 0
-18 35 0
-18 20 0
18 -20 -35 0
-17 -20 -35 0
-17 20 35 0
17 20 -35 0
17 -20 35 0
-16 33 0
-16 18 0
16 -18 -33 0
-15 -18 -33 0
-15 18 33 0
15 18 -33 0
15 -18 33 0
-14 -96 0
14 96 0
-13 -98 0
13 98 0
-12 -43 0
12 43 0
-11 -29 0
11 29 0
-10 -27 0
10 27 0
-9 -25 0
9 25 0
-8 -23 0
8 23 0
-7 -21 0
7 21 0
-19 -58 0
19 58 0
-17 -67 0
17 67 0
-15 -84 0
15 84 0
-16 -70 0
16 70 0
59 -74 0
-74 96 0
-59 74 -96 0
-59 -96 0
59 96 0
-50 95 -98 0
-50 -74 95 0
-74 95 -98 0
50 -95 98 0
50 74 -95 0
74 -95 98 0
-50 95 0
95 -98 0
-74 95 0
-50 -74 -98 0
42 -43 -48 0
42 -48 -95 0
42 -43 -95 0
-42 43 48 0
-42 48 95 0
-42 43 95 0
-42 48 0
-42 43 0
-42 95 0
43 48 95 0
-29 37 -46 0
37 -42 -46 0
-29 37 -42 0
29 -37 46 0
-37 42 46 0
29 -37 42 0
-37 46 0
29 -37 0
-37 42 0
29 42 46 0
-27 32 -87 0
32 -37 -87 0
-27 32 -37 0
27 -32 87 0
-32 37 87 0
27 -32 37 0
-32 87 0
27 -32 0
-32 37 0
27 37 87 0
6 -25 -89 0
6 -32 -89 0
6 -25 -32 0
-6 25 89 0
-6 32 89 0
-6 25 32 0
6 -89 0
6 -25 0
6 -32 0
-25 -32 -89 0
5 -23 -91 0
5 -6 -91 0
5 -6 -23 0
-5 23 91 0
-5 6 91 0
-5 6 23 0
-5 91 0
-5 23 0
-5 6 0
6 23 91 0
4 -21 -60 0
4 -5 -60 0
4 -5 -21 0
-4 21 60 0
-4 5 60 0
-4 5 21 0
4 -60 0
4 -21 0
4 -5 0
-5 -21 -60 0
3 -19 -69 0
3 -4 -69 0
3 -4 -19 0
-3 19 69 0
-3 4 69 0
-3 4 19 0
3 -69 0
3 -19 0
3 -4 0
-4 -19 -69 0
2 -17 -63 0
2 -3 -63 0
2 -3 -17 0
-2 17 63 0
-2 3 63 0
-2 3 17 0
2 -63 0
2 -17 0
2 -3 0
-3 -17 -63 0
-1 15 0
-1 2 0
1 -2 -15 0
2 -15 0
-2 15 0
-1 -16 0
1 -16 0
-1 16 0
